out/bwp_3_8_1_lp.out
15
2 11    2 11
0 0    0 7
1 0    1 7
2 0    2 7
0 8    2 10
0 13    1 14
2 13    2 14
0 12    2 12
