out/bwp_3_8_1_lp.log
Tried aggregator 2 times.
MIP Presolve eliminated 14 rows and 50 columns.
MIP Presolve modified 123 coefficients.
Aggregator did 137 substitutions.
Reduced MIP has 520 rows, 469 columns, and 1231 nonzeros.
Reduced MIP has 297 binaries, 15 generals, 0 SOSs, and 112 indicators.
Presolve time = 0.00 sec. (1.32 ticks)
Found incumbent of value 35.000000 after 0.01 sec. (2.24 ticks)
Probing fixed 9 vars, tightened 71 bounds.
Probing changed sense of 28 constraints.
Probing time = 0.01 sec. (2.28 ticks)
Tried aggregator 3 times.
MIP Presolve eliminated 45 rows and 40 columns.
MIP Presolve modified 116 coefficients.
Aggregator did 153 substitutions.
Reduced MIP has 322 rows, 276 columns, and 863 nonzeros.
Reduced MIP has 210 binaries, 39 generals, 0 SOSs, and 106 indicators.
Presolve time = 0.01 sec. (1.92 ticks)
Probing time = 0.00 sec. (0.95 ticks)
Tried aggregator 1 time.
Reduced MIP has 322 rows, 276 columns, and 863 nonzeros.
Reduced MIP has 210 binaries, 39 generals, 0 SOSs, and 106 indicators.
Presolve time = 0.00 sec. (0.43 ticks)
Probing time = 0.00 sec. (0.95 ticks)
Clique table members: 524.
MIP emphasis: balance optimality and feasibility.
MIP search method: dynamic search.
Parallel mode: deterministic, using up to 4 threads.
Root relaxation solution time = 0.00 sec. (0.71 ticks)

        Nodes                                         Cuts/
   Node  Left     Objective  IInf  Best Integer    Best Bound    ItCnt     Gap

*     0+    0                           35.0000       15.0000       87   57.14%
      0     0       15.0000   112       35.0000       15.0000       87   57.14%
      0     0       15.0000    53       35.0000      Cuts: 28      121   57.14%
      0     0       15.0000    45       35.0000      Cuts: 73      165   57.14%
      0     0       15.0000    37       35.0000      Cuts: 18      180   57.14%
      0     0       15.0000    26       35.0000       Cuts: 7      189   57.14%
      0     0       15.0000    26       35.0000   Flowcuts: 1      190   57.14%
*     0+    0                           19.0000       15.0000      190   21.05%
*     0+    0                           18.0000       15.0000      190   16.67%

Repeating presolve.
Tried aggregator 2 times.
MIP Presolve eliminated 120 rows and 99 columns.
MIP Presolve modified 189 coefficients.
Aggregator did 10 substitutions.
Reduced MIP has 218 rows, 167 columns, and 592 nonzeros.
Reduced MIP has 111 binaries, 35 generals, 0 SOSs, and 80 indicators.
Presolve time = 0.00 sec. (0.97 ticks)
Probing fixed 3 vars, tightened 20 bounds.
Probing time = 0.00 sec. (0.50 ticks)
Tried aggregator 2 times.
MIP Presolve eliminated 32 rows and 8 columns.
MIP Presolve modified 65 coefficients.
Aggregator did 5 substitutions.
Reduced MIP has 182 rows, 154 columns, and 518 nonzeros.
Reduced MIP has 103 binaries, 35 generals, 0 SOSs, and 76 indicators.
Presolve time = 0.00 sec. (0.75 ticks)
Probing time = 0.00 sec. (0.36 ticks)
Tried aggregator 2 times.
MIP Presolve eliminated 1 rows and 0 columns.
MIP Presolve modified 2 coefficients.
Aggregator did 1 substitutions.
Reduced MIP has 180 rows, 153 columns, and 515 nonzeros.
Reduced MIP has 103 binaries, 35 generals, 0 SOSs, and 76 indicators.
Presolve time = 0.00 sec. (0.36 ticks)
Represolve time = 0.01 sec. (3.51 ticks)
Probing time = 0.00 sec. (0.35 ticks)
Clique table members: 183.
MIP emphasis: balance optimality and feasibility.
MIP search method: dynamic search.
Parallel mode: deterministic, using up to 4 threads.
Root relaxation solution time = 0.00 sec. (0.61 ticks)

        Nodes                                         Cuts/
   Node  Left     Objective  IInf  Best Integer    Best Bound    ItCnt     Gap

*     0+    0                           18.0000       15.0000      248   16.67%
      0     0       15.0000    74       18.0000       15.0000      248   16.67%
      0     0       15.0000    28       18.0000       Cuts: 6      259   16.67%
      0     0       15.0000    28       18.0000      Cuts: 25      278   16.67%
      0     0       15.0000    27       18.0000      Cuts: 19      284   16.67%
*     0+    0                           17.0000       15.0000      284   11.76%
*     0+    0                           15.0000       15.0000      284    0.00%
      0     0        cutoff             15.0000       15.0000      284    0.00%
Elapsed time = 0.15 sec. (41.92 ticks, tree = 0.00 MB, solutions = 5)

Clique cuts applied:  12
Cover cuts applied:  6
Implied bound cuts applied:  6
Mixed integer rounding cuts applied:  1
Zero-half cuts applied:  6
Lift and project cuts applied:  1
Gomory fractional cuts applied:  9

Root node processing (before b&c):
  Real time             =    0.15 sec. (41.95 ticks)
Parallel b&c, 4 threads:
  Real time             =    0.00 sec. (0.00 ticks)
  Sync time (average)   =    0.00 sec.
  Wait time (average)   =    0.00 sec.
                          ------------
Total (root+branch&cut) =    0.15 sec. (41.95 ticks)
